p edge 624 1248
e 1 573
e 1 574
e 2 575
e 2 576
e 3 589
e 3 421
e 3 422
e 3 590
e 4 592
e 4 591
e 4 423
e 4 424
e 5 561
e 5 562
e 5 445
e 5 446
e 6 563
e 6 564
e 6 447
e 6 448
e 7 369
e 7 370
e 7 261
e 7 262
e 8 371
e 8 372
e 8 263
e 8 264
e 9 469
e 9 357
e 9 358
e 9 470
e 10 472
e 10 471
e 10 359
e 10 360
e 11 449
e 11 561
e 11 450
e 11 305
e 11 306
e 11 563
e 11 610
e 11 609
e 12 612
e 12 451
e 12 452
e 12 611
e 12 562
e 12 307
e 12 308
e 12 564
e 13 453
e 13 454
e 13 221
e 13 557
e 13 558
e 13 350
e 13 349
e 13 222
e 14 455
e 14 456
e 14 559
e 14 560
e 14 223
e 14 224
e 14 351
e 14 352
e 15 457
e 15 458
e 15 273
e 15 274
e 15 377
e 15 378
e 16 459
e 16 460
e 16 275
e 16 276
e 16 379
e 16 380
e 17 237
e 17 238
e 17 597
e 17 469
e 17 598
e 17 471
e 17 505
e 17 506
e 18 600
e 18 239
e 18 240
e 18 470
e 18 599
e 18 472
e 18 507
e 18 508
e 19 581
e 19 341
e 19 342
e 19 582
e 20 584
e 20 583
e 20 343
e 20 344
e 21 553
e 21 554
e 21 557
e 21 559
e 21 565
e 21 566
e 22 555
e 22 556
e 22 558
e 22 560
e 22 567
e 22 568
e 23 621
e 23 622
e 24 623
e 24 624
e 25 557
e 25 560
e 26 558
e 26 559
e 27 465
e 27 466
e 27 593
e 27 594
e 28 596
e 28 467
e 28 468
e 28 595
e 29 433
e 29 434
e 29 293
e 29 294
e 30 435
e 30 436
e 30 295
e 30 296
e 31 285
e 31 221
e 31 223
e 31 409
e 31 410
e 31 349
e 31 286
e 31 351
e 32 412
e 32 224
e 32 222
e 32 411
e 32 288
e 32 350
e 32 287
e 32 352
e 33 429
e 33 430
e 34 431
e 34 432
e 35 393
e 35 394
e 35 581
e 35 583
e 36 395
e 36 396
e 36 582
e 36 584
e 37 273
e 37 275
e 37 309
e 37 310
e 38 274
e 38 276
e 38 311
e 38 312
e 39 313
e 39 314
e 40 315
e 40 316
e 41 577
e 41 578
e 41 393
e 41 589
e 41 395
e 41 301
e 41 302
e 41 591
e 41 309
e 41 311
e 41 473
e 41 474
e 42 579
e 42 580
e 42 394
e 42 396
e 42 590
e 42 303
e 42 304
e 42 592
e 42 310
e 42 312
e 42 475
e 42 476
e 43 545
e 43 546
e 43 425
e 43 426
e 43 534
e 43 533
e 43 497
e 43 498
e 43 373
e 43 374
e 43 501
e 43 502
e 44 535
e 44 547
e 44 548
e 44 503
e 44 504
e 44 536
e 44 427
e 44 428
e 44 499
e 44 500
e 44 375
e 44 376
e 45 313
e 45 315
e 45 269
e 45 270
e 46 314
e 46 316
e 46 271
e 46 272
e 47 609
e 47 611
e 47 581
e 47 584
e 47 585
e 47 586
e 47 305
e 47 307
e 47 473
e 47 475
e 48 610
e 48 612
e 48 582
e 48 583
e 48 587
e 48 588
e 48 306
e 48 308
e 48 474
e 48 476
e 49 381
e 49 245
e 49 246
e 49 285
e 49 382
e 49 287
e 50 247
e 50 248
e 50 288
e 50 286
e 50 383
e 50 384
e 51 421
e 51 423
e 52 422
e 52 424
e 53 535
e 53 373
e 53 533
e 53 405
e 53 406
e 53 375
e 53 217
e 53 218
e 54 536
e 54 376
e 54 374
e 54 407
e 54 408
e 54 219
e 54 220
e 54 534
e 55 493
e 55 494
e 55 309
e 55 312
e 55 249
e 55 250
e 56 495
e 56 496
e 56 310
e 56 311
e 56 251
e 56 252
e 57 321
e 57 322
e 57 389
e 57 390
e 57 397
e 57 398
e 57 597
e 57 599
e 58 323
e 58 324
e 58 391
e 58 392
e 58 399
e 58 400
e 58 598
e 58 600
e 59 425
e 59 427
e 59 465
e 59 467
e 59 381
e 59 383
e 60 426
e 60 428
e 60 466
e 60 468
e 60 382
e 60 384
e 61 513
e 61 514
e 62 515
e 62 516
e 63 233
e 63 234
e 63 621
e 63 623
e 63 405
e 63 407
e 64 235
e 64 236
e 64 622
e 64 624
e 64 406
e 64 408
e 65 361
e 65 362
e 65 333
e 65 334
e 65 497
e 65 499
e 66 363
e 66 364
e 66 335
e 66 336
e 66 498
e 66 500
e 67 225
e 67 226
e 67 579
e 67 301
e 67 303
e 67 369
e 67 371
e 67 577
e 67 573
e 67 575
e 68 578
e 68 227
e 68 228
e 68 302
e 68 304
e 68 370
e 68 580
e 68 372
e 68 574
e 68 576
e 69 237
e 69 239
e 70 238
e 70 240
e 71 297
e 71 298
e 71 555
e 71 561
e 71 553
e 71 564
e 71 537
e 71 538
e 72 556
e 72 554
e 72 299
e 72 300
e 72 562
e 72 563
e 72 539
e 72 540
e 73 521
e 73 265
e 73 266
e 73 299
e 73 301
e 73 304
e 73 297
e 73 522
e 74 524
e 74 300
e 74 298
e 74 267
e 74 268
e 74 302
e 74 303
e 74 523
e 75 229
e 75 230
e 75 329
e 75 330
e 75 245
e 75 247
e 75 285
e 75 288
e 76 231
e 76 232
e 76 331
e 76 332
e 76 246
e 76 248
e 76 286
e 76 287
e 77 401
e 77 402
e 78 403
e 78 404
e 79 461
e 79 341
e 79 462
e 79 343
e 80 464
e 80 342
e 80 463
e 80 344
e 81 289
e 81 290
e 81 515
e 81 580
e 81 549
e 81 550
e 81 612
e 81 513
e 81 577
e 81 609
e 82 514
e 82 291
e 82 516
e 82 551
e 82 552
e 82 579
e 82 292
e 82 611
e 82 578
e 82 610
e 83 529
e 83 425
e 83 428
e 83 237
e 83 240
e 83 433
e 83 530
e 83 435
e 84 426
e 84 427
e 84 238
e 84 239
e 84 532
e 84 434
e 84 531
e 84 436
e 85 569
e 85 570
e 86 571
e 86 572
e 87 257
e 87 258
e 87 571
e 87 569
e 88 570
e 88 259
e 88 260
e 88 572
e 89 233
e 89 235
e 89 365
e 89 366
e 89 209
e 89 210
e 90 234
e 90 236
e 90 367
e 90 368
e 90 211
e 90 212
e 91 421
e 91 424
e 91 365
e 91 367
e 91 373
e 91 376
e 92 422
e 92 423
e 92 366
e 92 368
e 92 374
e 92 375
e 93 209
e 93 211
e 93 341
e 93 344
e 94 210
e 94 212
e 94 342
e 94 343
e 95 233
e 95 236
e 95 485
e 95 486
e 96 234
e 96 235
e 96 487
e 96 488
e 97 453
e 97 455
e 97 313
e 97 316
e 97 509
e 97 510
e 98 454
e 98 456
e 98 314
e 98 315
e 98 511
e 98 512
e 99 417
e 99 418
e 99 547
e 99 393
e 99 396
e 99 209
e 99 505
e 99 212
e 99 545
e 99 217
e 99 219
e 99 507
e 100 546
e 100 419
e 100 420
e 100 394
e 100 395
e 100 210
e 100 211
e 100 548
e 100 506
e 100 218
e 100 220
e 100 508
e 101 225
e 101 227
e 101 349
e 101 509
e 101 277
e 101 278
e 101 601
e 101 602
e 101 253
e 101 254
e 101 511
e 101 352
e 102 226
e 102 604
e 102 228
e 102 510
e 102 351
e 102 279
e 102 280
e 102 603
e 102 512
e 102 350
e 102 255
e 102 256
e 103 265
e 103 267
e 104 266
e 104 268
e 105 417
e 105 505
e 105 419
e 105 508
e 106 418
e 106 507
e 106 420
e 106 506
e 107 517
e 107 518
e 107 553
e 107 525
e 107 556
e 107 269
e 107 526
e 107 271
e 107 437
e 107 438
e 108 519
e 108 520
e 108 554
e 108 555
e 108 270
e 108 527
e 108 272
e 108 439
e 108 440
e 108 528
e 109 353
e 109 354
e 110 355
e 110 356
e 111 545
e 111 548
e 111 565
e 111 567
e 111 441
e 111 442
e 112 546
e 112 547
e 112 566
e 112 568
e 112 443
e 112 444
e 113 353
e 113 355
e 113 325
e 113 326
e 113 361
e 113 477
e 113 363
e 113 478
e 113 369
e 113 457
e 113 372
e 113 601
e 113 603
e 113 445
e 113 459
e 113 447
e 114 354
e 114 604
e 114 356
e 114 327
e 114 328
e 114 362
e 114 364
e 114 370
e 114 371
e 114 479
e 114 458
e 114 602
e 114 480
e 114 446
e 114 460
e 114 448
e 115 461
e 115 463
e 115 213
e 115 214
e 115 317
e 115 318
e 116 462
e 116 464
e 116 215
e 116 216
e 116 319
e 116 320
e 117 257
e 117 259
e 117 521
e 117 525
e 117 523
e 117 429
e 117 431
e 117 527
e 117 409
e 117 411
e 117 541
e 117 542
e 118 258
e 118 260
e 118 522
e 118 524
e 118 430
e 118 432
e 118 528
e 118 410
e 118 412
e 118 526
e 118 543
e 118 544
e 119 493
e 119 277
e 119 495
e 119 279
e 120 494
e 120 496
e 120 278
e 120 280
e 121 253
e 121 213
e 121 255
e 121 215
e 122 254
e 122 256
e 122 214
e 122 216
e 123 409
e 123 412
e 123 613
e 123 614
e 124 410
e 124 411
e 124 615
e 124 616
e 125 605
e 125 281
e 125 469
e 125 472
e 125 249
e 125 282
e 125 251
e 125 477
e 125 606
e 125 479
e 126 252
e 126 608
e 126 470
e 126 471
e 126 250
e 126 283
e 126 284
e 126 478
e 126 607
e 126 480
e 127 617
e 127 618
e 127 485
e 127 487
e 128 619
e 128 620
e 128 486
e 128 488
e 129 385
e 129 386
e 129 329
e 129 331
e 129 241
e 129 242
e 129 595
e 129 593
e 130 387
e 130 388
e 130 330
e 130 332
e 130 594
e 130 243
e 130 244
e 130 596
e 131 345
e 131 346
e 131 461
e 131 464
e 132 347
e 132 348
e 132 462
e 132 463
e 133 493
e 133 496
e 133 405
e 133 408
e 134 495
e 134 406
e 134 407
e 134 494
e 135 289
e 135 385
e 135 291
e 135 332
e 135 357
e 135 359
e 135 482
e 135 265
e 135 268
e 135 387
e 135 465
e 135 329
e 135 468
e 135 481
e 136 290
e 136 483
e 136 292
e 136 358
e 136 360
e 136 266
e 136 267
e 136 484
e 136 386
e 136 466
e 136 467
e 136 388
e 136 330
e 136 331
e 137 457
e 137 537
e 137 539
e 137 460
e 138 458
e 138 459
e 138 540
e 138 538
e 139 517
e 139 437
e 139 519
e 139 439
e 140 520
e 140 518
e 140 438
e 140 440
e 141 389
e 141 391
e 141 568
e 141 305
e 141 308
e 141 533
e 141 536
e 141 565
e 141 445
e 141 448
e 142 390
e 142 392
e 142 567
e 142 306
e 142 307
e 142 534
e 142 535
e 142 446
e 142 447
e 142 566
e 143 485
e 143 488
e 144 486
e 144 487
e 145 489
e 145 490
e 145 597
e 145 600
e 145 441
e 145 443
e 145 605
e 145 607
e 146 491
e 146 492
e 146 598
e 146 599
e 146 442
e 146 444
e 146 606
e 146 608
e 147 585
e 147 587
e 147 333
e 147 335
e 147 317
e 147 319
e 148 586
e 148 588
e 148 334
e 148 336
e 148 318
e 148 320
e 149 617
e 149 619
e 149 269
e 149 272
e 149 541
e 149 543
e 150 618
e 150 620
e 150 270
e 150 271
e 150 542
e 150 544
e 151 377
e 151 540
e 151 261
e 151 263
e 151 520
e 151 345
e 151 501
e 151 503
e 151 249
e 151 517
e 151 347
e 151 252
e 151 379
e 151 537
e 152 380
e 152 538
e 152 262
e 152 519
e 152 264
e 152 504
e 152 518
e 152 502
e 152 346
e 152 250
e 152 251
e 152 348
e 152 539
e 152 378
e 153 357
e 153 360
e 154 358
e 154 359
e 155 453
e 155 456
e 155 333
e 155 336
e 155 401
e 155 403
e 156 454
e 156 455
e 156 334
e 156 335
e 156 402
e 156 404
e 157 585
e 157 588
e 157 365
e 157 368
e 158 586
e 158 587
e 158 366
e 158 367
e 159 321
e 159 323
e 159 549
e 159 615
e 159 551
e 159 397
e 159 399
e 159 337
e 159 338
e 159 613
e 160 322
e 160 324
e 160 550
e 160 552
e 160 616
e 160 398
e 160 400
e 160 339
e 160 340
e 160 614
e 161 353
e 161 356
e 161 245
e 161 248
e 162 354
e 162 355
e 162 246
e 162 247
e 163 293
e 163 295
e 163 489
e 163 491
e 163 477
e 163 480
e 164 294
e 164 296
e 164 490
e 164 492
e 164 478
e 164 479
e 165 325
e 165 327
e 165 397
e 165 400
e 165 277
e 165 280
e 165 413
e 165 414
e 166 326
e 166 328
e 166 398
e 166 399
e 166 278
e 166 279
e 166 415
e 166 416
e 167 289
e 167 385
e 167 292
e 167 388
e 168 290
e 168 291
e 168 387
e 168 386
e 169 241
e 169 449
e 169 243
e 169 451
e 170 242
e 170 244
e 170 452
e 170 450
e 171 617
e 171 509
e 171 620
e 171 512
e 171 573
e 171 576
e 172 618
e 172 619
e 172 574
e 172 511
e 172 510
e 172 575
e 173 337
e 173 273
e 173 339
e 173 276
e 173 281
e 173 283
e 173 253
e 173 256
e 174 338
e 174 274
e 174 275
e 174 340
e 174 282
e 174 284
e 174 254
e 174 255
e 175 261
e 175 231
e 175 264
e 175 441
e 175 229
e 175 444
e 176 262
e 176 263
e 176 232
e 176 442
e 176 443
e 176 230
e 177 601
e 177 604
e 177 317
e 177 320
e 178 602
e 178 603
e 178 318
e 178 319
e 179 257
e 179 260
e 179 293
e 179 296
e 180 258
e 180 259
e 180 294
e 180 295
e 181 229
e 181 232
e 181 429
e 181 432
e 181 497
e 181 500
e 181 569
e 181 572
e 182 230
e 182 231
e 182 430
e 182 431
e 182 498
e 182 499
e 182 570
e 182 571
e 183 481
e 183 513
e 183 483
e 183 516
e 183 401
e 183 404
e 184 514
e 184 515
e 184 484
e 184 482
e 184 402
e 184 403
e 185 417
e 185 420
e 185 549
e 185 552
e 185 489
e 185 492
e 185 217
e 185 220
e 186 418
e 186 419
e 186 550
e 186 551
e 186 490
e 186 491
e 186 218
e 186 219
e 187 337
e 187 340
e 188 338
e 188 339
e 189 325
e 189 328
e 189 589
e 189 592
e 189 501
e 189 504
e 190 326
e 190 327
e 190 590
e 190 591
e 190 502
e 190 503
e 191 413
e 191 381
e 191 415
e 191 384
e 192 416
e 192 382
e 192 383
e 192 414
e 193 389
e 193 440
e 193 392
e 193 361
e 193 541
e 193 364
e 193 213
e 193 216
e 193 473
e 193 437
e 193 476
e 193 221
e 193 544
e 193 224
e 194 543
e 194 390
e 194 391
e 194 439
e 194 362
e 194 363
e 194 542
e 194 214
e 194 215
e 194 474
e 194 475
e 194 222
e 194 223
e 194 438
e 195 529
e 195 531
e 196 530
e 196 532
e 197 605
e 197 608
e 197 525
e 197 528
e 198 607
e 198 526
e 198 527
e 198 606
e 199 449
e 199 433
e 199 452
e 199 621
e 199 436
e 199 624
e 199 241
e 199 244
e 199 345
e 199 348
e 200 450
e 200 451
e 200 434
e 200 435
e 200 623
e 200 622
e 200 242
e 200 243
e 200 346
e 200 347
e 201 321
e 201 324
e 201 380
e 201 593
e 201 377
e 201 596
e 201 281
e 201 284
e 201 413
e 201 416
e 202 322
e 202 323
e 202 414
e 202 594
e 202 595
e 202 378
e 202 282
e 202 283
e 202 379
e 202 415
e 203 481
e 203 484
e 203 613
e 203 616
e 204 482
e 204 483
e 204 614
e 204 615
e 205 225
e 205 529
e 205 228
e 205 532
e 206 226
e 206 227
e 206 531
e 206 530
e 207 297
e 207 521
e 207 300
e 207 524
e 208 298
e 208 299
e 208 523
e 208 522